CMD:
./solvers/bin/cadical --plain --no-reduce -t 1600 ./data/cnfs//oski15a01b70s/oski15a01b70s.24.cnf

c --- [ banner ] -------------------------------------------------------------
c 
c CaDiCaL SAT Solver
c Copyright (c) 2016-2024
c A. Biere, M. Fleury, N. Froleyks, K. Fazekas, F. Pollitt, T. Faller
c JKU Linz, University of Freiburg, TU Wien
c 
c Version 2.1.3 5296d3d2a9bf48c154ab2acb5e44625776d821bf
c g++ (Gentoo 12.3.1_p20230526 p2) 12.3.1 20230526 -Wall -Wextra -O3 -DNDEBUG
c Sat Aug 9 07:26:21 PDT 2025 Linux cedar2.int.cedar.computecanada.ca 5.14.0-362.24.2.el9_3.x86_64 x86_64
c 
c --- [ limit ] --------------------------------------------------------------
c 
c setting time limit to 1600 seconds real time (due to '-t 1600')
c 
c --- [ parsing input ] ------------------------------------------------------
c 
c reading DIMACS file from './data/cnfs//oski15a01b70s/oski15a01b70s.24.cnf'
c opening file to read './data/cnfs//oski15a01b70s/oski15a01b70s.24.cnf'
c found 'p cnf 8065149 23013590' header
c parsed 23013590 clauses in 4.26 seconds process time
c 
c --- [ options ] ------------------------------------------------------------
c 
c   --compact=false                (different from default 'true')
c   --decompose=false              (different from default 'true')
c   --deduplicate=false            (different from default 'true')
c   --elim=false                   (different from default 'true')
c   --probe=false                  (different from default 'true')
c   --reduce=false                 (different from default 'true')
c   --subsume=false                (different from default 'true')
c   --ternary=false                (different from default 'true')
c   --transred=false               (different from default 'true')
c   --vivify=false                 (different from default 'true')
c 
c --- [ solving ] ------------------------------------------------------------
c 
c time measured in process time since initialization
c 
c  seconds    reductions  redundant   irredundant
c          MB     restarts       trail          variables
c            level   conflicts       glue             remaining
c 
c *  4.26 3399  0 0   0    0    0  0% 0 21218933 6082495 75%
c {  5.43 3448  0 0   0    0    0  0% 0 21218933 6082495 75%
c i  7.60 3450 8863 0  23  129  128 29% 3 21218933 6082494 75%
c i  7.60 3450 8534 0  24  135  131 29% 3 21218933 6082493 75%
c i  7.61 3450 6852 0  25  170  163 28% 3 21218933 6082490 75%
c i  7.61 3450 6811 0  25  171  163 28% 3 21218933 6082487 75%
c i  7.61 3450 6732 0  25  173  164 28% 3 21218933 6082486 75%
c i  7.63 3450 4983 0  29  236  219 27% 3 21218933 6082480 75%
c i  7.63 3450 4629 0  29  254  234 27% 3 21218933 6082474 75%
c i  7.63 3450 4593 0  29  257  234 27% 3 21218933 6082471 75%
c i  7.64 3450 4540 0  29  260  236 27% 3 21218933 6082469 75%
c i  8.43 3453 7012 0  35  348  323 29% 3 21218933 6082467 75%
c i  8.43 3453 6910 0  35  353  325 29% 3 21218933 6082466 75%
c i  8.45 3453 6376 0  40  384  351 29% 3 21218933 6082465 75%
c i  8.45 3453 6276 0  40  390  355 29% 3 21218933 6082464 75%
c i  8.45 3453 6211 0  40  394  358 29% 3 21218933 6082461 75%
c i  8.46 3454 5062 0  40  484  444 28% 3 21218933 6082458 75%
c i  8.46 3454 5051 0  40  485  444 28% 3 21218933 6082455 75%
c i  8.48 3454 4221 0  40  594  537 28% 3 21218933 6082453 75%
c i  8.51 3454 4183 0  40  600  540 28% 3 21218933 6082444 75%
c 
c  seconds      reductions  redundant   irredundant
c          MB       restarts       trail          variables
c             level    conflicts       glue             remaining
c 
c i  8.51 3454 4176 0  40  601  540 28% 3 21218933 6082441 75%
c i  8.51 3454 4169 0  40  603  540 28% 3 21218933 6082438 75%
c i  9.25 3456 7902 0  42  876  793 32% 3 21218933 6082436 75%
c }  9.27 3456 6888 0  42 1005  922 31% 2 21218933 6082436 75%
c [  9.27 3456  0 0  42 1005  922  0% 0 21218933 6082436 75%
c O  9.65 3456 14988 0  42 1006  923 46% 1 21218933 6082436 75%
c i 15.17 3464 17567 0  43 2201 1969 85% 19 21218933 6082389 75%
c i 15.17 3464 17301 0  43 2219 1971 85% 19 21218933 6082342 75%
c i 15.18 3464 17073 0  43 2236 1971 84% 19 21218933 6082295 75%
c i 15.19 3464 16829 0  43 2253 1985 84% 19 21218933 6082268 75%
c i 15.19 3464 16801 0  43 2258 1985 84% 19 21218933 6082257 75%
c i 15.19 3464 16427 0  43 2285 2008 83% 18 21218933 6082250 75%
c i 15.19 3464 16333 0  43 2292 2013 83% 18 21218933 6082232 75%
c i 15.68 3464 13603 0  43 2553 2229 76% 21 21218933 6082224 75%
c i 15.71 3464 13379 0  43 2579 2253 75% 21 21218933 6082212 75%
c i 15.87 3464 13265 0  43 2592 2263 75% 20 21218933 6082205 75%
c i 16.04 3464 12824 0  43 2651 2305 74% 20 21218933 6082158 75%
c i 16.05 3464 12686 0  43 2669 2318 73% 20 21218933 6082152 75%
c i 16.05 3464 12679 0  43 2670 2318 73% 20 21218933 6082149 75%
c i 16.05 3464 12671 0  43 2671 2318 73% 20 21218933 6082146 75%
c 
c  seconds       reductions  redundant    irredundant
c          MB        restarts       trail           variables
c              level    conflicts       glue              remaining
c 
c i 16.05 3464 12664 0  43 2672 2318 73% 20 21218933 6082140 75%
c i 16.05 3464 12656 0  43 2673 2318 73% 20 21218933 6082137 75%
c i 16.05 3464 12649 0  43 2674 2318 73% 19 21218933 6082134 75%
c i 16.05 3464 12641 0  43 2675 2318 73% 19 21218933 6082131 75%
... skipped 12808 lines ...
c i 1588.79 4013 2025 0 39892 545494 440408 36% 10 16330346 5864500 73%
c i 1588.79 4013 2024 0 39892 545498 440411 36% 10 16330346 5864489 73%
c i 1588.79 4013 2024 0 39892 545499 440411 36% 10 16330346 5864466 73%
c i 1588.95 4013 2023 0 39892 545722 440610 36% 10 16330346 5864440 73%
c i 1589.02 4013 2022 0 39892 545809 440687 36% 10 16330346 5864417 73%
c i 1589.07 4013 2022 0 39892 545832 440706 36% 10 16330346 5864414 73%
c i 1589.07 4013 2022 0 39892 545842 440715 36% 10 16330346 5864410 73%
c i 1589.11 4013 2021 0 39892 545924 440792 36% 10 16330346 5864351 73%
c 
c   seconds       reductions       redundant     irredundant
c            MB        restarts            trail           variables
c               level       conflicts          glue              remaining
c 
c i 1589.25 4013 2020 0 39892 546022 440872 36% 10 16330346 5864340 73%
c i 1589.39 4013 2019 0 39892 546173 441013 36% 10 16330346 5864279 73%
c i 1589.42 4013 2018 0 39892 546222 441056 36% 10 16330346 5864127 73%
c i 1589.44 4013 2018 0 39892 546242 441074 36% 10 16330346 5864125 73%
c i 1589.45 4013 2018 0 39892 546272 441098 36% 10 16330346 5864113 73%
c i 1589.45 4013 2018 0 39892 546278 441101 36% 10 16330346 5864104 73%
c i 1589.46 4013 2018 0 39892 546303 441124 36% 10 16330346 5864095 73%
c i 1590.10 4013 2016 0 39892 546505 441308 36% 10 16330346 5864084 73%
c i 1590.42 4013 2017 0 39892 546532 441332 36% 10 16330346 5864077 73%
c i 1590.64 4013 2017 0 39892 546561 441357 36% 10 16330346 5864063 73%
c i 1590.66 4013 2017 0 39892 546581 441373 36% 10 16330346 5864057 73%
c i 1590.99 4013 2017 0 39892 546605 441395 36% 10 16330346 5864045 73%
c i 1591.72 4013 2012 0 39892 547018 441763 36% 10 16330346 5864039 73%
c i 1591.72 4013 2012 0 39892 547033 441777 36% 10 16330346 5864021 73%
c i 1591.72 4013 2012 0 39892 547037 441780 36% 10 16330346 5864010 73%
c i 1591.74 4013 2012 0 39892 547077 441814 36% 10 16330346 5863982 73%
c i 1591.77 4013 2011 0 39892 547105 441840 36% 10 16330346 5863980 73%
c i 1591.96 4013 2010 0 39892 547290 441987 36% 10 16330346 5863976 73%
c i 1591.99 4013 2010 0 39892 547302 441990 36% 10 16330346 5863946 73%
c i 1592.00 4013 2010 0 39892 547304 441991 36% 10 16330346 5863943 73%
c 
c   seconds       reductions       redundant     irredundant
c            MB        restarts            trail           variables
c               level       conflicts          glue              remaining
c 
c i 1592.00 4013 2010 0 39892 547307 441993 36% 10 16330346 5863940 73%
c i 1592.11 4013 2010 0 39892 547336 442018 36% 10 16330346 5863911 73%
c i 1592.63 4013 2009 0 39892 547465 442137 36% 10 16330346 5863908 73%
c i 1592.88 4013 2007 0 39892 547589 442255 36% 10 16330346 5863902 73%
c i 1592.89 4013 2007 0 39892 547617 442280 36% 10 16330346 5863899 73%
c i 1593.03 4013 2005 0 39892 547751 442409 36% 10 16330346 5863735 73%
c ] 1593.26 4013 2002 0 39892 547941 442588 36% 10 16330346 5863712 73%
c ? 1593.26 4013 2002 0 39892 547941 442588 36% 10 16330346 5863712 73%
c 
c --- [ result ] -------------------------------------------------------------
c 
c UNKNOWN
c 
c --- [ run-time profiling ] -------------------------------------------------
c 
c process time taken by individual solving procedures
c (percentage relative to process time for solving)
c 
c      1589.01  100.00% search
c      1199.47   75.49% unstable
c       342.63   21.56% stable
c        45.73    2.88% walk
c         4.26    0.27% parse
c         1.17    0.07% lucky
c         0.00    0.00% simplify
c   =================================
c      1589.01   99.73% solve
c 
c last line shows process time for solving
c (percentage relative to total process time)
c 
c --- [ statistics ] ---------------------------------------------------------
c 
c chronological:            343708        62.73 %  of conflicts
c conflicts:                547941       344.83    per second
c decisions:              23010427     14481.01    per second
c fixed:                   2201437        27.30 %  of all variables
c learned:                  510637        93.19 %  per conflict
c learned_lits:            9116676       100.00 %  learned literals
c minimized:                     0         0.00 %  learned literals
c shrunken:                1540027        16.89 %  learned literals
c minishrunken:             851607         9.34 %  learned literals
c otfs:                       6841         1.25 %  of conflict
c propagations:        12086738008         7.61 M  per second
c rephased:                     32     17123.16    interval
c restarts:                  39892        13.74    interval
c stabilizing:                   5        37.75 %  of conflicts
c subsumed:                  28578         0.13 %  of all clauses
c strengthened:               6709         0.03 %  of all clauses
c walked:                       10     54794.10    interval
c 
c seconds are measured in process time for solving
c 
c --- [ resources ] ----------------------------------------------------------
c 
c total process time since initialization:      1593.26    seconds
c total real time since initialization:         1600.00    seconds
c maximum resident set size of process:         4578.85    MB
c 
c --- [ shutting down ] ------------------------------------------------------
c 
c exit 0
